c WARNING: for repeatability, setting FPU to use double precision
d VARIABLES            27306        
d CONSTRAINTS          101392       
c ============================[ Problem Statistics ]=============================
c |                                                                             |
c |  Number of variables:         27306                                         |
c |  Number of clauses:          101392                                         |
c |  Parse time:                   0.02 s                                       |
c |                                                                             |
c ============================[ Search Statistics ]==============================
c | Conflicts |          ORIGINAL         |          LEARNT          | Progress |
c |           |    Vars  Clauses Literals |    Limit  Clauses Lit/Cl |          |
c ===============================================================================
c |       100 |   17939    77358   190233 |    28364       99     68 | 34.304 % |
c |       250 |   17939    77356   190228 |    31201      249     50 | 34.304 % |
c |       475 |   17939    77356   190228 |    34321      474     41 | 34.304 % |
c |       812 |   17939    77356   190228 |    37753      811     36 | 34.304 % |
c |      1318 |   17939    77356   190228 |    41528     1317     35 | 34.304 % |
c |      2077 |   17939    77356   190228 |    45681     2076     35 | 34.304 % |
c |      3216 |   17939    77356   190228 |    50249     3215     47 | 34.304 % |
c |      4924 |   17939    77356   190228 |    55274     4923     60 | 34.304 % |
c |      7486 |   17939    77356   190228 |    60802     7485     69 | 34.304 % |
c |     11330 |   17939    77356   190228 |    66882    11329     71 | 34.304 % |
c |     17096 |   17939    77356   190228 |    73570    17095     75 | 34.304 % |
c |     25745 |   17939    77356   190228 |    80927    25744     76 | 34.304 % |
c |     38719 |   17939    77356   190228 |    89020    38718     75 | 34.304 % |
c ===============================================================================
c restarts              : 157
c conflicts             : 51111          (5022 /sec)
c decisions             : 96655          (0.00 % random) (9498 /sec)
c propagations          : 30593412       (3006240 /sec)
c conflict literals     : 3772259        (40.24 % deleted)
d RESTARTS             157
d FAILURES             51111        
d NODES                96655        
d BACKTRACKS           96655        
d PROPAGATIONS         30593412     
d NOGOODSIZE           73.81 
d MEMORY               38.00 
d TIME                 10.1766 

s UNSATISFIABLE
